benchmarks_CP/INST_36x36/45/inst36x36_45_38.dzn
S=6;
start=[|
19,	14,	16,	-1,	-1,	-1,	-1,	13,	-1,	-1,	-1,	-1,	10,	31,	7,	20,	-1,	-1,	36,	-1,	3,	-1,	-1,	34,	-1,	27,	17,	9,	-1,	-1,	-1,	-1,	33,	-1,	-1,	28|
27,	-1,	18,	36,	24,	26,	-1,	-1,	-1,	10,	-1,	2,	-1,	16,	1,	23,	-1,	-1,	6,	15,	-1,	4,	33,	-1,	-1,	28,	25,	-1,	30,	32,	-1,	34,	3,	-1,	-1,	35|
3,	-1,	-1,	32,	-1,	-1,	16,	4,	-1,	6,	-1,	22,	-1,	-1,	28,	-1,	24,	-1,	14,	-1,	-1,	-1,	-1,	9,	34,	21,	-1,	13,	-1,	33,	-1,	-1,	15,	-1,	18,	-1|
13,	-1,	20,	-1,	35,	21,	-1,	3,	23,	-1,	-1,	29,	-1,	-1,	-1,	-1,	-1,	30,	31,	-1,	-1,	28,	17,	-1,	-1,	16,	-1,	-1,	2,	-1,	-1,	-1,	-1,	-1,	-1,	-1|
2,	30,	-1,	28,	-1,	-1,	35,	-1,	36,	-1,	27,	34,	25,	8,	-1,	-1,	-1,	29,	7,	-1,	10,	16,	1,	-1,	14,	18,	6,	-1,	-1,	-1,	23,	-1,	-1,	21,	24,	9|
29,	-1,	33,	-1,	9,	-1,	-1,	31,	28,	-1,	-1,	15,	-1,	5,	35,	-1,	-1,	32,	13,	24,	-1,	2,	-1,	25,	19,	-1,	20,	-1,	23,	10,	-1,	-1,	-1,	14,	6,	27|
-1,	-1,	1,	3,	2,	10,	20,	16,	-1,	-1,	-1,	6,	-1,	-1,	18,	36,	-1,	-1,	8,	-1,	26,	23,	-1,	-1,	25,	-1,	-1,	-1,	-1,	-1,	-1,	-1,	-1,	-1,	19,	-1|
-1,	23,	-1,	14,	34,	-1,	-1,	25,	-1,	5,	28,	3,	-1,	32,	-1,	-1,	-1,	-1,	29,	-1,	-1,	9,	18,	24,	33,	-1,	-1,	-1,	-1,	31,	20,	-1,	36,	-1,	-1,	16|
20,	-1,	32,	-1,	-1,	-1,	23,	-1,	-1,	-1,	17,	-1,	3,	-1,	12,	-1,	-1,	27,	19,	-1,	1,	34,	16,	-1,	-1,	-1,	-1,	-1,	-1,	18,	-1,	-1,	-1,	2,	-1,	-1|
8,	-1,	4,	-1,	-1,	18,	-1,	2,	30,	-1,	36,	-1,	-1,	19,	-1,	34,	-1,	-1,	10,	-1,	-1,	17,	-1,	-1,	29,	9,	-1,	-1,	13,	-1,	14,	-1,	-1,	24,	3,	11|
21,	-1,	28,	27,	-1,	-1,	-1,	8,	34,	-1,	-1,	-1,	31,	14,	9,	2,	-1,	-1,	-1,	33,	20,	-1,	36,	-1,	-1,	19,	-1,	-1,	3,	-1,	15,	4,	-1,	23,	-1,	26|
16,	-1,	-1,	25,	19,	9,	-1,	32,	-1,	27,	35,	-1,	22,	10,	-1,	-1,	33,	23,	-1,	-1,	-1,	14,	13,	3,	5,	-1,	-1,	-1,	34,	-1,	-1,	-1,	6,	18,	-1,	-1|
31,	32,	29,	33,	7,	-1,	-1,	28,	-1,	-1,	16,	-1,	-1,	2,	-1,	-1,	4,	20,	-1,	-1,	12,	-1,	-1,	8,	9,	30,	-1,	-1,	-1,	15,	-1,	-1,	-1,	13,	-1,	17|
-1,	5,	-1,	22,	-1,	-1,	30,	-1,	-1,	20,	-1,	8,	-1,	-1,	-1,	19,	-1,	-1,	1,	-1,	-1,	-1,	24,	7,	32,	-1,	-1,	33,	-1,	3,	25,	-1,	-1,	-1,	4,	12|
24,	-1,	17,	26,	27,	23,	-1,	-1,	-1,	31,	-1,	-1,	-1,	22,	36,	-1,	-1,	5,	2,	18,	32,	-1,	21,	28,	-1,	-1,	-1,	-1,	12,	-1,	6,	33,	-1,	9,	-1,	-1|
-1,	-1,	-1,	11,	3,	6,	-1,	-1,	-1,	-1,	-1,	-1,	-1,	-1,	-1,	31,	26,	18,	-1,	9,	-1,	-1,	-1,	22,	-1,	13,	-1,	34,	20,	-1,	-1,	-1,	-1,	-1,	23,	-1|
12,	-1,	-1,	20,	13,	-1,	-1,	-1,	-1,	-1,	32,	17,	-1,	27,	-1,	3,	-1,	33,	-1,	-1,	29,	10,	-1,	31,	2,	5,	-1,	-1,	-1,	22,	-1,	26,	-1,	8,	36,	-1|
-1,	-1,	34,	18,	16,	-1,	-1,	-1,	-1,	2,	-1,	25,	12,	-1,	-1,	24,	-1,	1,	27,	17,	-1,	13,	-1,	-1,	-1,	-1,	-1,	29,	36,	-1,	-1,	-1,	10,	11,	35,	-1|
-1,	-1,	-1,	-1,	-1,	33,	-1,	-1,	-1,	-1,	-1,	-1,	-1,	-1,	24,	-1,	-1,	-1,	11,	34,	28,	25,	20,	32,	30,	-1,	21,	35,	-1,	-1,	17,	-1,	-1,	-1,	-1,	-1|
28,	-1,	10,	-1,	-1,	36,	-1,	-1,	5,	4,	3,	-1,	-1,	-1,	-1,	-1,	-1,	-1,	-1,	-1,	-1,	-1,	19,	26,	11,	-1,	27,	-1,	9,	-1,	33,	-1,	-1,	15,	32,	22|
-1,	-1,	-1,	35,	-1,	8,	22,	30,	-1,	-1,	-1,	32,	-1,	26,	21,	6,	-1,	-1,	-1,	4,	2,	36,	-1,	-1,	3,	33,	-1,	-1,	-1,	34,	11,	19,	18,	-1,	20,	-1|
25,	-1,	-1,	-1,	-1,	32,	-1,	11,	-1,	-1,	26,	-1,	-1,	-1,	-1,	-1,	-1,	-1,	-1,	6,	5,	-1,	15,	10,	13,	-1,	-1,	23,	-1,	17,	3,	-1,	35,	1,	-1,	2|
26,	-1,	-1,	2,	-1,	-1,	-1,	15,	33,	35,	-1,	-1,	11,	-1,	-1,	-1,	5,	-1,	22,	-1,	17,	24,	8,	-1,	-1,	12,	28,	-1,	18,	14,	-1,	36,	-1,	6,	-1,	10|
-1,	-1,	-1,	-1,	-1,	-1,	-1,	36,	-1,	25,	-1,	12,	-1,	-1,	-1,	-1,	9,	10,	-1,	7,	-1,	3,	35,	23,	-1,	-1,	-1,	2,	-1,	5,	-1,	-1,	26,	28,	-1,	-1|
-1,	-1,	19,	1,	-1,	5,	13,	9,	-1,	-1,	34,	-1,	-1,	4,	-1,	25,	-1,	-1,	20,	22,	-1,	-1,	-1,	17,	16,	-1,	-1,	30,	-1,	12,	8,	32,	-1,	35,	-1,	-1|
36,	-1,	2,	-1,	11,	-1,	-1,	7,	-1,	-1,	15,	33,	-1,	-1,	-1,	12,	-1,	-1,	32,	-1,	-1,	-1,	-1,	13,	-1,	20,	-1,	-1,	25,	-1,	24,	-1,	-1,	-1,	-1,	-1|
35,	9,	-1,	-1,	20,	-1,	-1,	-1,	-1,	-1,	8,	-1,	-1,	-1,	-1,	1,	-1,	17,	-1,	5,	-1,	12,	-1,	-1,	6,	-1,	32,	-1,	-1,	21,	26,	-1,	13,	30,	-1,	25|
7,	-1,	8,	21,	-1,	14,	-1,	-1,	12,	26,	10,	-1,	27,	23,	-1,	-1,	36,	-1,	4,	-1,	24,	-1,	25,	-1,	22,	3,	-1,	19,	31,	29,	-1,	-1,	20,	-1,	-1,	-1|
-1,	6,	-1,	30,	-1,	-1,	-1,	-1,	16,	14,	5,	31,	32,	-1,	3,	11,	18,	-1,	-1,	8,	-1,	33,	-1,	-1,	-1,	34,	2,	36,	-1,	-1,	1,	27,	-1,	7,	29,	-1|
33,	-1,	-1,	-1,	26,	-1,	27,	-1,	-1,	-1,	-1,	-1,	20,	-1,	15,	-1,	-1,	9,	-1,	-1,	-1,	29,	2,	-1,	18,	8,	-1,	7,	-1,	11,	-1,	14,	34,	-1,	17,	-1|
1,	-1,	3,	4,	-1,	-1,	-1,	-1,	-1,	19,	-1,	9,	30,	-1,	34,	-1,	-1,	24,	-1,	10,	-1,	27,	32,	29,	23,	6,	5,	-1,	-1,	28,	2,	-1,	-1,	20,	-1,	18|
23,	-1,	27,	24,	21,	20,	-1,	22,	-1,	-1,	-1,	1,	-1,	15,	26,	-1,	-1,	-1,	-1,	-1,	7,	-1,	5,	12,	36,	-1,	31,	-1,	16,	-1,	-1,	-1,	-1,	-1,	-1,	-1|
-1,	28,	-1,	9,	-1,	22,	-1,	23,	24,	-1,	7,	18,	-1,	29,	-1,	10,	6,	8,	-1,	-1,	11,	15,	31,	-1,	-1,	-1,	13,	32,	-1,	2,	12,	17,	-1,	-1,	1,	30|
-1,	35,	6,	12,	-1,	-1,	36,	10,	-1,	15,	4,	-1,	-1,	13,	27,	-1,	-1,	3,	-1,	-1,	16,	-1,	-1,	2,	-1,	-1,	-1,	-1,	26,	-1,	-1,	7,	-1,	-1,	31,	23|
11,	26,	13,	-1,	-1,	-1,	-1,	-1,	2,	-1,	29,	35,	-1,	-1,	33,	7,	-1,	-1,	24,	-1,	4,	-1,	34,	-1,	-1,	-1,	12,	-1,	-1,	9,	-1,	-1,	-1,	-1,	28,	3|
-1,	10,	-1,	15,	-1,	19,	-1,	27,	-1,	-1,	-1,	-1,	-1,	11,	-1,	17,	-1,	-1,	-1,	26,	23,	-1,	-1,	-1,	-1,	-1,	-1,	-1,	-1,	-1,	16,	29,	-1,	-1,	-1,	-1|];
